Optimal - objective value -1073.00000000
     14 x_14                       1                       0
     17 x_17                       1         15.6341463414634
     19 x_19                       1                       0
     28 x_28                       1         63.390243902439
     58 x_58                       1         154.463414634146
     59 x_59                       1         65.5243902439024
     62 x_62                       1         287.975609756098
     67 x_67                       1                       0
     82 x_82                       1                       0
     86 x_86                       1                       0
    109 x_109                      1                       0
    113 x_113                      1         -25.1829268292683
    116 x_116                      1                       0
    119 x_119                      1         43.6707317073171
